************************************************************************
file with basedata            : j9025_.bas
initial value random generator: 1577745431
************************************************************************
projects                      :  1
jobs (incl. supersource/sink ):  92
horizon                       :  451
RESOURCES
  - renewable                 :  4   R
  - nonrenewable              :  0   N
  - doubly constrained        :  0   D
************************************************************************
PROJECT INFORMATION:
pronr.  #jobs rel.date duedate tardcost  MPM-Time
    1     90      0       77       65       77
************************************************************************
PRECEDENCE RELATIONS:
jobnr.    #modes  #successors   successors
   1        1          3           2   3   4
   2        1          3           7   8  12
   3        1          2          11  66
   4        1          3           5   6  29
   5        1          2          48  70
   6        1          3           9  10  18
   7        1          2          22  36
   8        1          3          31  54  67
   9        1          2          16  27
  10        1          3          13  14  16
  11        1          2          17  42
  12        1          3          15  19  23
  13        1          3          21  35  49
  14        1          2          47  51
  15        1          2          20  38
  16        1          1          41
  17        1          1          87
  18        1          2          30  43
  19        1          3          36  41  65
  20        1          2          24  85
  21        1          3          33  50  56
  22        1          3          32  34  63
  23        1          3          25  26  55
  24        1          2          28  50
  25        1          2          62  79
  26        1          3          52  53  82
  27        1          3          52  56  74
  28        1          3          40  45  72
  29        1          3          57  66  75
  30        1          3          55  67  70
  31        1          1          39
  32        1          1          72
  33        1          3          69  80  86
  34        1          2          55  88
  35        1          3          37  69  76
  36        1          2          44  63
  37        1          1          78
  38        1          1          69
  39        1          1          40
  40        1          2          59  81
  41        1          2          48  51
  42        1          2          44  58
  43        1          1          48
  44        1          1          57
  45        1          3          46  66  83
  46        1          3          52  62  88
  47        1          2          54  68
  48        1          3          58  67  82
  49        1          1          54
  50        1          1          84
  51        1          2          73  81
  52        1          1          60
  53        1          2          70  84
  54        1          3          73  77  79
  55        1          1          79
  56        1          1          60
  57        1          1          71
  58        1          2          60  61
  59        1          3          63  74  78
  60        1          1          68
  61        1          1          75
  62        1          1          65
  63        1          1          64
  64        1          1          82
  65        1          2          68  71
  66        1          1          84
  67        1          1          72
  68        1          1          77
  69        1          2          77  85
  70        1          1          81
  71        1          1          76
  72        1          1          83
  73        1          2          74  89
  74        1          2          75  83
  75        1          1          80
  76        1          2          78  80
  77        1          1          89
  78        1          1          90
  79        1          1          85
  80        1          2          90  91
  81        1          1          86
  82        1          1          86
  83        1          1          87
  84        1          1          88
  85        1          2          87  91
  86        1          1          91
  87        1          1          90
  88        1          1          89
  89        1          1          92
  90        1          1          92
  91        1          1          92
  92        1          0        
************************************************************************
REQUESTS/DURATIONS:
jobnr. mode duration  R 1  R 2  R 3  R 4
------------------------------------------------------------------------
  1      1     0       0    0    0    0
  2      1     4      10    8    3    3
  3      1    10       8    0    6    8
  4      1     9       6    0    6    0
  5      1     5       9    9    0    2
  6      1     9       0    5    8    7
  7      1     2       1    2    7    0
  8      1     9       7    5    0    7
  9      1     1       6    1    8    0
 10      1     4       0    7    6    0
 11      1     3      10    0    1    9
 12      1     1       2    0    1    0
 13      1     7      10    6   10    0
 14      1     7       3   10    0    1
 15      1     7       2    0    0    6
 16      1     6       2    0    1    6
 17      1     2       0    6    0    8
 18      1     6       0    6    0    0
 19      1     9       4    4    2    4
 20      1     6       0    1    3   10
 21      1     8       7    1    0    4
 22      1     9       5    9    0    0
 23      1     4       3    8    4    0
 24      1     5       3    0    1    7
 25      1     3       0    7    8   10
 26      1     7      10    3    0    7
 27      1     8       0    4    6    0
 28      1     1       0    8    2    0
 29      1     1       0    7    8    3
 30      1     3       0    4    4    6
 31      1     8      10    2    0    6
 32      1     4       2    7    4    8
 33      1     5       1    1    8    6
 34      1     9       3    5    5    1
 35      1     9       4    8    5    4
 36      1     3       8    2    3    4
 37      1     5       0    1    7    0
 38      1     6       0    2    1   10
 39      1     6       4    4    3    2
 40      1    10       1    2    9    3
 41      1     2       5    0    8    5
 42      1     2       2    5    0    1
 43      1     3       5   10    5    0
 44      1     5       4    0    8    8
 45      1     6       9    1    9   10
 46      1     2       0    5    4    5
 47      1     6       0    5    5    3
 48      1     8       6   10    8   10
 49      1     3       2   10    5    6
 50      1     1       0    5    3   10
 51      1    10       0    2    0    0
 52      1    10       0    7    2    3
 53      1     3       4    9    9    2
 54      1     1       7   10    2    6
 55      1     5       9    9    7    6
 56      1     4       4    0    1   10
 57      1     5       6    4    9    6
 58      1     6       8    1    1    8
 59      1     6       8    0    0    4
 60      1     3       9    8   10    0
 61      1     5       9    8    1    0
 62      1     1       3    6    0    8
 63      1    10       3    9    2    0
 64      1     6       0    5    0    5
 65      1     7       3    0    4    5
 66      1     2       8    7    0    9
 67      1     9       5   10    2    0
 68      1     3       0    7    1    1
 69      1     7       3    6    1    5
 70      1     3       4    4    9    0
 71      1     3       4    4   10    2
 72      1     5       9   10    7    1
 73      1     2      10    0    4    8
 74      1     1       0    2    7    0
 75      1     7       8    6    6    4
 76      1     5       0    0    7    8
 77      1     2       0    1    7    8
 78      1     1       0    1    1    3
 79      1     5       0    6   10    2
 80      1    10      10    4   10    0
 81      1     3       0    2    6    4
 82      1     6       2   10    4    2
 83      1     2       0    2    0    5
 84      1     1      10    7   10    9
 85      1     4       9    9    0    0
 86      1     5       6    9   10   10
 87      1     6       0    0    2    8
 88      1     3      10    0    0    2
 89      1     5       9    5    0    0
 90      1     3       6    0    5    5
 91      1     7       0    9    0   10
 92      1     0       0    0    0    0
************************************************************************
RESOURCEAVAILABILITIES:
  R 1  R 2  R 3  R 4
   18   20   19   19
************************************************************************
